coords = array2d(1..68, 1..2, [477, 762, 865, 305, 375, 715, 19, 500, 654, 779,
    797, 171, 59, 713, 862, 937, 528, 281, 18, 674, 128, 891, 57, 151,
    804, 692, 242, 230, 135, 142, 587, 304, 507, 10, 363, 534, 67,
    124, 533, 345, 691, 342, 513, 754, 823, 626, 632, 905, 775, 718,
    788, 883, 671, 862, 130, 263, 819, 383, 808, 199, 560, 983, 748,
    607, 229, 466, 127, 867, 896, 84, 616, 251, 33, 572, 43, 331, 803,
    610, 99, 893, 322, 856, 116, 57, 464, 242, 164, 781, 186, 994,
    937, 174, 218, 702, 923, 47, 399, 797, 461, 912, 446, 606, 547,
    271, 982, 788, 954, 689, 288, 188, 242, 274, 671, 190, 225, 577,
    380, 384, 674, 286, 384, 534, 504, 123, 473, 367, 377, 155, 225,
    934, 346, 620, 858, 514, 53, 823]);

n = 68;

